% File represents an instance of a Composite Structure problem to be solved by a CP framework
% Created on 2025-03-26 10:41:24.890
T = 50;
n = 16;
m = 24;
edges = [(1, 2),
(5, 6),
(9, 10),
(14, 13),
(3, 2),
(7, 6),
(10, 11),
(14, 15),
(4, 3),
(7, 8),
(11, 12),
(15, 16),
(5, 1),
(9, 5),
(9, 13),
(6, 2),
(10, 6),
(14, 10),
(7, 3),
(7, 11),
(15, 11),
(4, 8),
(8, 12),
(16, 12)];
counts = [|6, 18, 6, 14,
|4, 16, 4, 14,
|4, 18, 4, 16,
|4, 20, 4, 20,
|6, 18, 6, 16,
|6, 16, 6, 16,
|6, 18, 6, 16,
|4, 18, 4, 16,
|8, 18, 8, 16,
|6, 18, 6, 16,
|6, 16, 6, 14,
|4, 16, 4, 14,
|8, 16, 8, 14,
|8, 18, 8, 16,
|6, 18, 6, 14,
|4, 18, 4, 14|];
